* ENCODING=ISO-8859-1
NAME          ./convert/K5010W16.KNP.mps
ROWS
 N  OBJROW            
 L  R0000000          
 L  IC0               
 L  IC1               
 L  IC2               
 L  IC3               
 L  IC4               
 L  IC5               
 L  IC6               
 L  IC7               
 L  IC8               
 L  IC9               
 L  interdictionBudget
COLUMNS
    MARK0000  'MARKER'                 'INTORG'
    C0000000            OBJROW                                  578
    C0000000            R0000000                                448
    C0000000            IC0                                       1
    C0000001            OBJROW                                  152
    C0000001            R0000000                                617
    C0000001            IC1                                       1
    C0000002            OBJROW                                  731
    C0000002            R0000000                                274
    C0000002            IC2                                       1
    C0000003            OBJROW                                  648
    C0000003            R0000000                                681
    C0000003            IC3                                       1
    C0000004            OBJROW                                  859
    C0000004            R0000000                                498
    C0000004            IC4                                       1
    C0000005            OBJROW                                  312
    C0000005            R0000000                                823
    C0000005            IC5                                       1
    C0000006            OBJROW                                  859
    C0000006            R0000000                                108
    C0000006            IC6                                       1
    C0000007            OBJROW                                  368
    C0000007            R0000000                                823
    C0000007            IC7                                       1
    C0000008            OBJROW                                  547
    C0000008            R0000000                                890
    C0000008            IC8                                       1
    C0000009            OBJROW                                  384
    C0000009            R0000000                                104
    C0000009            IC9                                       1
    x0                  IC0                                       1
    x0                  interdictionBudget                      716
    x1                  IC1                                       1
    x1                  interdictionBudget                      839
    x2                  IC2                                       1
    x2                  interdictionBudget                      714
    x3                  IC3                                       1
    x3                  interdictionBudget                       72
    x4                  IC4                                       1
    x4                  interdictionBudget                      683
    x5                  IC5                                       1
    x5                  interdictionBudget                      198
    x6                  IC6                                       1
    x6                  interdictionBudget                      140
    x7                  IC7                                       1
    x7                  interdictionBudget                      575
    x8                  IC8                                       1
    x8                  interdictionBudget                      252
    x9                  IC9                                       1
    x9                  interdictionBudget                       69
    MARK0001  'MARKER'                 'INTEND'
RHS
    rhs                 R0000000                               2633
    rhs                 IC0                                       1
    rhs                 IC1                                       1
    rhs                 IC2                                       1
    rhs                 IC3                                       1
    rhs                 IC4                                       1
    rhs                 IC5                                       1
    rhs                 IC6                                       1
    rhs                 IC7                                       1
    rhs                 IC8                                       1
    rhs                 IC9                                       1
    rhs                 interdictionBudget                     2129
BOUNDS
 UP bnd                 C0000000                                  1
 UP bnd                 C0000001                                  1
 UP bnd                 C0000002                                  1
 UP bnd                 C0000003                                  1
 UP bnd                 C0000004                                  1
 UP bnd                 C0000005                                  1
 UP bnd                 C0000006                                  1
 UP bnd                 C0000007                                  1
 UP bnd                 C0000008                                  1
 UP bnd                 C0000009                                  1
 UP bnd                 x0                                        1
 UP bnd                 x1                                        1
 UP bnd                 x2                                        1
 UP bnd                 x3                                        1
 UP bnd                 x4                                        1
 UP bnd                 x5                                        1
 UP bnd                 x6                                        1
 UP bnd                 x7                                        1
 UP bnd                 x8                                        1
 UP bnd                 x9                                        1
ENDATA
